NAME          
ROWS
 N  OBJ
 L  c1
 L  c2
 L  c3
 L  c4
COLUMNS
    MARKER    'MARKER'                 'INTORG'
    x[1]      c1        221
    x[1]      c2        991
    x[1]      c3        520
    x[1]      c4        860
    x[1]      OBJ       -633
    x[2]      c1        544
    x[2]      c2        749
    x[2]      c3        12
    x[2]      c4        543
    x[2]      OBJ       -106
    x[3]      c1        899
    x[3]      c2        531
    x[3]      c3        151
    x[3]      c4        515
    x[3]      OBJ       -72
    x[4]      c1        876
    x[4]      c2        765
    x[4]      c3        110
    x[4]      c4        487
    x[4]      OBJ       -365
    x[5]      c1        430
    x[5]      c2        154
    x[5]      c3        707
    x[5]      c4        358
    x[5]      OBJ       -54
    x[6]      c1        516
    x[6]      c2        332
    x[6]      c3        273
    x[6]      c4        377
    x[6]      OBJ       -724
    x[7]      c1        336
    x[7]      c2        82
    x[7]      c3        892
    x[7]      c4        163
    x[7]      OBJ       -270
    x[8]      c1        701
    x[8]      c2        817
    x[8]      c3        649
    x[8]      c4        301
    x[8]      OBJ       -157
    x[9]      c1        738
    x[9]      c2        177
    x[9]      c3        316
    x[9]      c4        855
    x[9]      OBJ       -369
    x[10]     c1        552
    x[10]     c2        147
    x[10]     c3        294
    x[10]     c4        359
    x[10]     OBJ       -295
    x[11]     c1        453
    x[11]     c2        117
    x[11]     c3        954
    x[11]     c4        780
    x[11]     OBJ       -523
    x[12]     c1        270
    x[12]     c2        55
    x[12]     c3        379
    x[12]     c4        666
    x[12]     OBJ       -88
    x[13]     c1        670
    x[13]     c2        184
    x[13]     c3        487
    x[13]     c4        293
    x[13]     OBJ       -157
    x[14]     c1        197
    x[14]     c2        364
    x[14]     c3        844
    x[14]     c4        506
    x[14]     OBJ       -327
    x[15]     c1        927
    x[15]     c2        631
    x[15]     c3        185
    x[15]     c4        751
    x[15]     OBJ       -839
    x[16]     c1        177
    x[16]     c2        446
    x[16]     c3        1000
    x[16]     c4        321
    x[16]     OBJ       -358
    x[17]     c1        528
    x[17]     c2        685
    x[17]     c3        107
    x[17]     c4        737
    x[17]     OBJ       -778
    x[18]     c1        144
    x[18]     c2        565
    x[18]     c3        622
    x[18]     c4        700
    x[18]     OBJ       -969
    x[19]     c1        801
    x[19]     c2        822
    x[19]     c3        516
    x[19]     c4        379
    x[19]     OBJ       -938
    x[20]     c1        161
    x[20]     c2        489
    x[20]     c3        400
    x[20]     c4        109
    x[20]     OBJ       -725
    x[21]     c1        298
    x[21]     c2        977
    x[21]     c3        934
    x[21]     c4        910
    x[21]     OBJ       -564
    x[22]     c1        633
    x[22]     c2        239
    x[22]     c3        32
    x[22]     c4        742
    x[22]     OBJ       -687
    x[23]     c1        668
    x[23]     c2        994
    x[23]     c3        332
    x[23]     c4        752
    x[23]     OBJ       -410
    x[24]     c1        966
    x[24]     c2        398
    x[24]     c3        448
    x[24]     c4        666
    x[24]     OBJ       -186
    x[25]     c1        438
    x[25]     c2        119
    x[25]     c3        208
    x[25]     c4        542
    x[25]     OBJ       -880
RHS
    rhs       c1        6572
    rhs       c2        5915
    rhs       c3        5686
    rhs       c4        6836
RANGES
BOUNDS
 BV bounds    x[1]
 BV bounds    x[2]
 BV bounds    x[3]
 BV bounds    x[4]
 BV bounds    x[5]
 BV bounds    x[6]
 BV bounds    x[7]
 BV bounds    x[8]
 BV bounds    x[9]
 BV bounds    x[10]
 BV bounds    x[11]
 BV bounds    x[12]
 BV bounds    x[13]
 BV bounds    x[14]
 BV bounds    x[15]
 BV bounds    x[16]
 BV bounds    x[17]
 BV bounds    x[18]
 BV bounds    x[19]
 BV bounds    x[20]
 BV bounds    x[21]
 BV bounds    x[22]
 BV bounds    x[23]
 BV bounds    x[24]
 BV bounds    x[25]
ENDATA
